p cnf 362 1801
1 2 3 4 5 0
-1 -246 0
-1 -247 0
-1 -248 0
-2 246 0
-2 -247 0
-2 -248 0
-3 -246 0
-3 247 0
-3 -248 0
-4 246 0
-4 247 0
-4 -248 0
-5 -246 0
-5 -247 0
-5 248 0
-1 36 0
-1 6 0
-2 37 0
-2 7 0
-3 38 0
-3 8 0
-4 39 0
-4 9 0
-5 40 0
-5 10 0
6 7 8 9 10 0
-6 -249 0
-6 -250 0
-6 -251 0
-7 249 0
-7 -250 0
-7 -251 0
-8 -249 0
-8 250 0
-8 -251 0
-9 249 0
-9 250 0
-9 -251 0
-10 -249 0
-10 -250 0
-10 251 0
-6 1 11 0
-6 1 41 0
-6 11 41 0
-7 2 12 0
-7 2 42 0
-7 12 42 0
-8 3 13 0
-8 3 43 0
-8 13 43 0
-9 4 14 0
-9 4 44 0
-9 14 44 0
-10 5 15 0
-10 5 45 0
-10 15 45 0
-6 -1 -11 -41 0
-7 -2 -12 -42 0
-8 -3 -13 -43 0
-9 -4 -14 -44 0
-10 -5 -15 -45 0
11 12 13 14 15 0
-11 -252 0
-11 -253 0
-11 -254 0
-12 252 0
-12 -253 0
-12 -254 0
-13 -252 0
-13 253 0
-13 -254 0
-14 252 0
-14 253 0
-14 -254 0
-15 -252 0
-15 -253 0
-15 254 0
-11 6 16 0
-11 6 46 0
-11 16 46 0
-12 7 17 0
-12 7 47 0
-12 17 47 0
-13 8 18 0
-13 8 48 0
-13 18 48 0
-14 9 19 0
-14 9 49 0
-14 19 49 0
-15 10 20 0
-15 10 50 0
-15 20 50 0
-11 -6 -16 -46 0
-12 -7 -17 -47 0
-13 -8 -18 -48 0
-14 -9 -19 -49 0
-15 -10 -20 -50 0
16 17 18 19 20 0
-16 -255 0
-16 -256 0
-16 -257 0
-17 255 0
-17 -256 0
-17 -257 0
-18 -255 0
-18 256 0
-18 -257 0
-19 255 0
-19 256 0
-19 -257 0
-20 -255 0
-20 -256 0
-20 257 0
-16 11 21 0
-16 11 51 0
-16 21 51 0
-17 12 22 0
-17 12 52 0
-17 22 52 0
-18 13 23 0
-18 13 53 0
-18 23 53 0
-19 14 24 0
-19 14 54 0
-19 24 54 0
-20 15 25 0
-20 15 55 0
-20 25 55 0
-16 -11 -21 -51 0
-17 -12 -22 -52 0
-18 -13 -23 -53 0
-19 -14 -24 -54 0
-20 -15 -25 -55 0
21 0
-22 0
-23 0
-24 0
-25 0
16 26 56 0
-16 -26 0
-16 -56 0
-26 -56 0
26 27 28 29 30 0
-26 -258 0
-26 -259 0
-26 -260 0
-27 258 0
-27 -259 0
-27 -260 0
-28 -258 0
-28 259 0
-28 -260 0
-29 258 0
-29 259 0
-29 -260 0
-30 -258 0
-30 -259 0
-30 260 0
-26 21 31 0
-26 21 61 0
-26 31 61 0
-27 22 32 0
-27 22 62 0
-27 32 62 0
-28 23 33 0
-28 23 63 0
-28 33 63 0
-29 24 34 0
-29 24 64 0
-29 34 64 0
-30 25 35 0
-30 25 65 0
-30 35 65 0
-26 -21 -31 -61 0
-27 -22 -32 -62 0
-28 -23 -33 -63 0
-29 -24 -34 -64 0
-30 -25 -35 -65 0
31 32 33 34 35 0
-31 -261 0
-31 -262 0
-31 -263 0
-32 261 0
-32 -262 0
-32 -263 0
-33 -261 0
-33 262 0
-33 -263 0
-34 261 0
-34 262 0
-34 -263 0
-35 -261 0
-35 -262 0
-35 263 0
-31 66 0
-31 26 0
-32 67 0
-32 27 0
-33 68 0
-33 28 0
-34 69 0
-34 29 0
-35 70 0
-35 30 0
36 37 38 39 40 0
-36 -264 0
-36 -265 0
-36 -266 0
-37 264 0
-37 -265 0
-37 -266 0
-38 -264 0
-38 265 0
-38 -266 0
-39 264 0
-39 265 0
-39 -266 0
-40 -264 0
-40 -265 0
-40 266 0
-36 71 41 0
-36 71 1 0
-36 41 1 0
-37 72 42 0
-37 72 2 0
-37 42 2 0
-38 73 43 0
-38 73 3 0
-38 43 3 0
-39 74 44 0
-39 74 4 0
-39 44 4 0
-40 75 45 0
-40 75 5 0
-40 45 5 0
-36 -71 -41 -1 0
-37 -72 -42 -2 0
-38 -73 -43 -3 0
-39 -74 -44 -4 0
-40 -75 -45 -5 0
42 0
-41 0
-43 0
-44 0
-45 0
77 47 7 37 0
-77 -47 0
-77 -7 0
-77 -37 0
-47 -7 0
-47 -37 0
-7 -37 0
46 47 48 49 50 0
-46 -267 0
-46 -268 0
-46 -269 0
-47 267 0
-47 -268 0
-47 -269 0
-48 -267 0
-48 268 0
-48 -269 0
-49 267 0
-49 268 0
-49 -269 0
-50 -267 0
-50 -268 0
-50 269 0
-46 81 51 11 0
-46 81 51 41 0
-46 81 11 41 0
-46 51 11 41 0
-47 82 52 12 0
-47 82 52 42 0
-47 82 12 42 0
-47 52 12 42 0
-48 83 53 13 0
-48 83 53 43 0
-48 83 13 43 0
-48 53 13 43 0
-49 84 54 14 0
-49 84 54 44 0
-49 84 14 44 0
-49 54 14 44 0
-50 85 55 15 0
-50 85 55 45 0
-50 85 15 45 0
-50 55 15 45 0
-46 -81 -51 -11 0
-46 -81 -51 -41 0
-46 -81 -11 -41 0
-46 -51 -11 -41 0
-47 -82 -52 -12 0
-47 -82 -52 -42 0
-47 -82 -12 -42 0
-47 -52 -12 -42 0
-48 -83 -53 -13 0
-48 -83 -53 -43 0
-48 -83 -13 -43 0
-48 -53 -13 -43 0
-49 -84 -54 -14 0
-49 -84 -54 -44 0
-49 -84 -14 -44 0
-49 -54 -14 -44 0
-50 -85 -55 -15 0
-50 -85 -55 -45 0
-50 -85 -15 -45 0
-50 -55 -15 -45 0
51 52 53 54 55 0
-51 -270 0
-51 -271 0
-51 -272 0
-52 270 0
-52 -271 0
-52 -272 0
-53 -270 0
-53 271 0
-53 -272 0
-54 270 0
-54 271 0
-54 -272 0
-55 -270 0
-55 -271 0
-55 272 0
-51 86 56 16 0
-51 86 56 46 0
-51 86 16 46 0
-51 56 16 46 0
-52 87 57 17 0
-52 87 57 47 0
-52 87 17 47 0
-52 57 17 47 0
-53 88 58 18 0
-53 88 58 48 0
-53 88 18 48 0
-53 58 18 48 0
-54 89 59 19 0
-54 89 59 49 0
-54 89 19 49 0
-54 59 19 49 0
-55 90 60 20 0
-55 90 60 50 0
-55 90 20 50 0
-55 60 20 50 0
-51 -86 -56 -16 0
-51 -86 -56 -46 0
-51 -86 -16 -46 0
-51 -56 -16 -46 0
-52 -87 -57 -17 0
-52 -87 -57 -47 0
-52 -87 -17 -47 0
-52 -57 -17 -47 0
-53 -88 -58 -18 0
-53 -88 -58 -48 0
-53 -88 -18 -48 0
-53 -58 -18 -48 0
-54 -89 -59 -19 0
-54 -89 -59 -49 0
-54 -89 -19 -49 0
-54 -59 -19 -49 0
-55 -90 -60 -20 0
-55 -90 -60 -50 0
-55 -90 -20 -50 0
-55 -60 -20 -50 0
56 57 58 59 60 0
-56 -273 0
-56 -274 0
-56 -275 0
-57 273 0
-57 -274 0
-57 -275 0
-58 -273 0
-58 274 0
-58 -275 0
-59 273 0
-59 274 0
-59 -275 0
-60 -273 0
-60 -274 0
-60 275 0
-56 91 61 21 0
-56 91 61 51 0
-56 91 21 51 0
-56 61 21 51 0
-57 92 62 22 0
-57 92 62 52 0
-57 92 22 52 0
-57 62 22 52 0
-58 93 63 23 0
-58 93 63 53 0
-58 93 23 53 0
-58 63 23 53 0
-59 94 64 24 0
-59 94 64 54 0
-59 94 24 54 0
-59 64 24 54 0
-60 95 65 25 0
-60 95 65 55 0
-60 95 25 55 0
-60 65 25 55 0
-56 -91 -61 -21 0
-56 -91 -61 -51 0
-56 -91 -21 -51 0
-56 -61 -21 -51 0
-57 -92 -62 -22 0
-57 -92 -62 -52 0
-57 -92 -22 -52 0
-57 -62 -22 -52 0
-58 -93 -63 -23 0
-58 -93 -63 -53 0
-58 -93 -23 -53 0
-58 -63 -23 -53 0
-59 -94 -64 -24 0
-59 -94 -64 -54 0
-59 -94 -24 -54 0
-59 -64 -24 -54 0
-60 -95 -65 -25 0
-60 -95 -65 -55 0
-60 -95 -25 -55 0
-60 -65 -25 -55 0
63 0
-61 0
-62 0
-64 0
-65 0
98 68 28 58 0
-98 -68 0
-98 -28 0
-98 -58 0
-68 -28 0
-68 -58 0
-28 -58 0
66 67 68 69 70 0
-66 -276 0
-66 -277 0
-66 -278 0
-67 276 0
-67 -277 0
-67 -278 0
-68 -276 0
-68 277 0
-68 -278 0
-69 276 0
-69 277 0
-69 -278 0
-70 -276 0
-70 -277 0
-70 278 0
-66 101 61 0
-66 101 31 0
-66 61 31 0
-67 102 62 0
-67 102 32 0
-67 62 32 0
-68 103 63 0
-68 103 33 0
-68 63 33 0
-69 104 64 0
-69 104 34 0
-69 64 34 0
-70 105 65 0
-70 105 35 0
-70 65 35 0
-66 -101 -61 -31 0
-67 -102 -62 -32 0
-68 -103 -63 -33 0
-69 -104 -64 -34 0
-70 -105 -65 -35 0
71 72 73 74 75 0
-71 -279 0
-71 -280 0
-71 -281 0
-72 279 0
-72 -280 0
-72 -281 0
-73 -279 0
-73 280 0
-73 -281 0
-74 279 0
-74 280 0
-74 -281 0
-75 -279 0
-75 -280 0
-75 281 0
-71 106 76 0
-71 106 36 0
-71 76 36 0
-72 107 77 0
-72 107 37 0
-72 77 37 0
-73 108 78 0
-73 108 38 0
-73 78 38 0
-74 109 79 0
-74 109 39 0
-74 79 39 0
-75 110 80 0
-75 110 40 0
-75 80 40 0
-71 -106 -76 -36 0
-72 -107 -77 -37 0
-73 -108 -78 -38 0
-74 -109 -79 -39 0
-75 -110 -80 -40 0
78 0
-76 0
-77 0
-79 0
-80 0
113 83 43 73 0
-113 -83 0
-113 -43 0
-113 -73 0
-83 -43 0
-83 -73 0
-43 -73 0
81 82 83 84 85 0
-81 -282 0
-81 -283 0
-81 -284 0
-82 282 0
-82 -283 0
-82 -284 0
-83 -282 0
-83 283 0
-83 -284 0
-84 282 0
-84 283 0
-84 -284 0
-85 -282 0
-85 -283 0
-85 284 0
-81 116 86 46 0
-81 116 86 76 0
-81 116 46 76 0
-81 86 46 76 0
-82 117 87 47 0
-82 117 87 77 0
-82 117 47 77 0
-82 87 47 77 0
-83 118 88 48 0
-83 118 88 78 0
-83 118 48 78 0
-83 88 48 78 0
-84 119 89 49 0
-84 119 89 79 0
-84 119 49 79 0
-84 89 49 79 0
-85 120 90 50 0
-85 120 90 80 0
-85 120 50 80 0
-85 90 50 80 0
-81 -116 -86 -46 0
-81 -116 -86 -76 0
-81 -116 -46 -76 0
-81 -86 -46 -76 0
-82 -117 -87 -47 0
-82 -117 -87 -77 0
-82 -117 -47 -77 0
-82 -87 -47 -77 0
-83 -118 -88 -48 0
-83 -118 -88 -78 0
-83 -118 -48 -78 0
-83 -88 -48 -78 0
-84 -119 -89 -49 0
-84 -119 -89 -79 0
-84 -119 -49 -79 0
-84 -89 -49 -79 0
-85 -120 -90 -50 0
-85 -120 -90 -80 0
-85 -120 -50 -80 0
-85 -90 -50 -80 0
86 87 88 89 90 0
-86 -285 0
-86 -286 0
-86 -287 0
-87 285 0
-87 -286 0
-87 -287 0
-88 -285 0
-88 286 0
-88 -287 0
-89 285 0
-89 286 0
-89 -287 0
-90 -285 0
-90 -286 0
-90 287 0
-86 121 91 51 0
-86 121 91 81 0
-86 121 51 81 0
-86 91 51 81 0
-87 122 92 52 0
-87 122 92 82 0
-87 122 52 82 0
-87 92 52 82 0
-88 123 93 53 0
-88 123 93 83 0
-88 123 53 83 0
-88 93 53 83 0
-89 124 94 54 0
-89 124 94 84 0
-89 124 54 84 0
-89 94 54 84 0
-90 125 95 55 0
-90 125 95 85 0
-90 125 55 85 0
-90 95 55 85 0
-86 -121 -91 -51 0
-86 -121 -91 -81 0
-86 -121 -51 -81 0
-86 -91 -51 -81 0
-87 -122 -92 -52 0
-87 -122 -92 -82 0
-87 -122 -52 -82 0
-87 -92 -52 -82 0
-88 -123 -93 -53 0
-88 -123 -93 -83 0
-88 -123 -53 -83 0
-88 -93 -53 -83 0
-89 -124 -94 -54 0
-89 -124 -94 -84 0
-89 -124 -54 -84 0
-89 -94 -54 -84 0
-90 -125 -95 -55 0
-90 -125 -95 -85 0
-90 -125 -55 -85 0
-90 -95 -55 -85 0
91 92 93 94 95 0
-91 -288 0
-91 -289 0
-91 -290 0
-92 288 0
-92 -289 0
-92 -290 0
-93 -288 0
-93 289 0
-93 -290 0
-94 288 0
-94 289 0
-94 -290 0
-95 -288 0
-95 -289 0
-95 290 0
-91 126 96 56 0
-91 126 96 86 0
-91 126 56 86 0
-91 96 56 86 0
-92 127 97 57 0
-92 127 97 87 0
-92 127 57 87 0
-92 97 57 87 0
-93 128 98 58 0
-93 128 98 88 0
-93 128 58 88 0
-93 98 58 88 0
-94 129 99 59 0
-94 129 99 89 0
-94 129 59 89 0
-94 99 59 89 0
-95 130 100 60 0
-95 130 100 90 0
-95 130 60 90 0
-95 100 60 90 0
-91 -126 -96 -56 0
-91 -126 -96 -86 0
-91 -126 -56 -86 0
-91 -96 -56 -86 0
-92 -127 -97 -57 0
-92 -127 -97 -87 0
-92 -127 -57 -87 0
-92 -97 -57 -87 0
-93 -128 -98 -58 0
-93 -128 -98 -88 0
-93 -128 -58 -88 0
-93 -98 -58 -88 0
-94 -129 -99 -59 0
-94 -129 -99 -89 0
-94 -129 -59 -89 0
-94 -99 -59 -89 0
-95 -130 -100 -60 0
-95 -130 -100 -90 0
-95 -130 -60 -90 0
-95 -100 -60 -90 0
97 0
-96 0
-98 0
-99 0
-100 0
132 102 62 92 0
-132 -102 0
-132 -62 0
-132 -92 0
-102 -62 0
-102 -92 0
-62 -92 0
101 102 103 104 105 0
-101 -291 0
-101 -292 0
-101 -293 0
-102 291 0
-102 -292 0
-102 -293 0
-103 -291 0
-103 292 0
-103 -293 0
-104 291 0
-104 292 0
-104 -293 0
-105 -291 0
-105 -292 0
-105 293 0
-101 136 96 0
-101 136 66 0
-101 96 66 0
-102 137 97 0
-102 137 67 0
-102 97 67 0
-103 138 98 0
-103 138 68 0
-103 98 68 0
-104 139 99 0
-104 139 69 0
-104 99 69 0
-105 140 100 0
-105 140 70 0
-105 100 70 0
-101 -136 -96 -66 0
-102 -137 -97 -67 0
-103 -138 -98 -68 0
-104 -139 -99 -69 0
-105 -140 -100 -70 0
106 107 108 109 110 0
-106 -294 0
-106 -295 0
-106 -296 0
-107 294 0
-107 -295 0
-107 -296 0
-108 -294 0
-108 295 0
-108 -296 0
-109 294 0
-109 295 0
-109 -296 0
-110 -294 0
-110 -295 0
-110 296 0
-106 141 111 0
-106 141 71 0
-106 111 71 0
-107 142 112 0
-107 142 72 0
-107 112 72 0
-108 143 113 0
-108 143 73 0
-108 113 73 0
-109 144 114 0
-109 144 74 0
-109 114 74 0
-110 145 115 0
-110 145 75 0
-110 115 75 0
-106 -141 -111 -71 0
-107 -142 -112 -72 0
-108 -143 -113 -73 0
-109 -144 -114 -74 0
-110 -145 -115 -75 0
111 0
-112 0
-113 0
-114 0
-115 0
146 116 76 106 0
-146 -116 0
-146 -76 0
-146 -106 0
-116 -76 0
-116 -106 0
-76 -106 0
119 0
-116 0
-117 0
-118 0
-120 0
154 124 84 114 0
-154 -124 0
-154 -84 0
-154 -114 0
-124 -84 0
-124 -114 0
-84 -114 0
121 122 123 124 125 0
-121 -297 0
-121 -298 0
-121 -299 0
-122 297 0
-122 -298 0
-122 -299 0
-123 -297 0
-123 298 0
-123 -299 0
-124 297 0
-124 298 0
-124 -299 0
-125 -297 0
-125 -298 0
-125 299 0
-121 156 126 86 0
-121 156 126 116 0
-121 156 86 116 0
-121 126 86 116 0
-122 157 127 87 0
-122 157 127 117 0
-122 157 87 117 0
-122 127 87 117 0
-123 158 128 88 0
-123 158 128 118 0
-123 158 88 118 0
-123 128 88 118 0
-124 159 129 89 0
-124 159 129 119 0
-124 159 89 119 0
-124 129 89 119 0
-125 160 130 90 0
-125 160 130 120 0
-125 160 90 120 0
-125 130 90 120 0
-121 -156 -126 -86 0
-121 -156 -126 -116 0
-121 -156 -86 -116 0
-121 -126 -86 -116 0
-122 -157 -127 -87 0
-122 -157 -127 -117 0
-122 -157 -87 -117 0
-122 -127 -87 -117 0
-123 -158 -128 -88 0
-123 -158 -128 -118 0
-123 -158 -88 -118 0
-123 -128 -88 -118 0
-124 -159 -129 -89 0
-124 -159 -129 -119 0
-124 -159 -89 -119 0
-124 -129 -89 -119 0
-125 -160 -130 -90 0
-125 -160 -130 -120 0
-125 -160 -90 -120 0
-125 -130 -90 -120 0
126 127 128 129 130 0
-126 -300 0
-126 -301 0
-126 -302 0
-127 300 0
-127 -301 0
-127 -302 0
-128 -300 0
-128 301 0
-128 -302 0
-129 300 0
-129 301 0
-129 -302 0
-130 -300 0
-130 -301 0
-130 302 0
-126 161 131 91 0
-126 161 131 121 0
-126 161 91 121 0
-126 131 91 121 0
-127 162 132 92 0
-127 162 132 122 0
-127 162 92 122 0
-127 132 92 122 0
-128 163 133 93 0
-128 163 133 123 0
-128 163 93 123 0
-128 133 93 123 0
-129 164 134 94 0
-129 164 134 124 0
-129 164 94 124 0
-129 134 94 124 0
-130 165 135 95 0
-130 165 135 125 0
-130 165 95 125 0
-130 135 95 125 0
-126 -161 -131 -91 0
-126 -161 -131 -121 0
-126 -161 -91 -121 0
-126 -131 -91 -121 0
-127 -162 -132 -92 0
-127 -162 -132 -122 0
-127 -162 -92 -122 0
-127 -132 -92 -122 0
-128 -163 -133 -93 0
-128 -163 -133 -123 0
-128 -163 -93 -123 0
-128 -133 -93 -123 0
-129 -164 -134 -94 0
-129 -164 -134 -124 0
-129 -164 -94 -124 0
-129 -134 -94 -124 0
-130 -165 -135 -95 0
-130 -165 -135 -125 0
-130 -165 -95 -125 0
-130 -135 -95 -125 0
131 132 133 134 135 0
-131 -303 0
-131 -304 0
-131 -305 0
-132 303 0
-132 -304 0
-132 -305 0
-133 -303 0
-133 304 0
-133 -305 0
-134 303 0
-134 304 0
-134 -305 0
-135 -303 0
-135 -304 0
-135 305 0
-131 166 136 96 0
-131 166 136 126 0
-131 166 96 126 0
-131 136 96 126 0
-132 167 137 97 0
-132 167 137 127 0
-132 167 97 127 0
-132 137 97 127 0
-133 168 138 98 0
-133 168 138 128 0
-133 168 98 128 0
-133 138 98 128 0
-134 169 139 99 0
-134 169 139 129 0
-134 169 99 129 0
-134 139 99 129 0
-135 170 140 100 0
-135 170 140 130 0
-135 170 100 130 0
-135 140 100 130 0
-131 -166 -136 -96 0
-131 -166 -136 -126 0
-131 -166 -96 -126 0
-131 -136 -96 -126 0
-132 -167 -137 -97 0
-132 -167 -137 -127 0
-132 -167 -97 -127 0
-132 -137 -97 -127 0
-133 -168 -138 -98 0
-133 -168 -138 -128 0
-133 -168 -98 -128 0
-133 -138 -98 -128 0
-134 -169 -139 -99 0
-134 -169 -139 -129 0
-134 -169 -99 -129 0
-134 -139 -99 -129 0
-135 -170 -140 -100 0
-135 -170 -140 -130 0
-135 -170 -100 -130 0
-135 -140 -100 -130 0
136 137 138 139 140 0
-136 -306 0
-136 -307 0
-136 -308 0
-137 306 0
-137 -307 0
-137 -308 0
-138 -306 0
-138 307 0
-138 -308 0
-139 306 0
-139 307 0
-139 -308 0
-140 -306 0
-140 -307 0
-140 308 0
-136 171 131 0
-136 171 101 0
-136 131 101 0
-137 172 132 0
-137 172 102 0
-137 132 102 0
-138 173 133 0
-138 173 103 0
-138 133 103 0
-139 174 134 0
-139 174 104 0
-139 134 104 0
-140 175 135 0
-140 175 105 0
-140 135 105 0
-136 -171 -131 -101 0
-137 -172 -132 -102 0
-138 -173 -133 -103 0
-139 -174 -134 -104 0
-140 -175 -135 -105 0
141 142 143 144 145 0
-141 -309 0
-141 -310 0
-141 -311 0
-142 309 0
-142 -310 0
-142 -311 0
-143 -309 0
-143 310 0
-143 -311 0
-144 309 0
-144 310 0
-144 -311 0
-145 -309 0
-145 -310 0
-145 311 0
-141 176 146 0
-141 176 106 0
-141 146 106 0
-142 177 147 0
-142 177 107 0
-142 147 107 0
-143 178 148 0
-143 178 108 0
-143 148 108 0
-144 179 149 0
-144 179 109 0
-144 149 109 0
-145 180 150 0
-145 180 110 0
-145 150 110 0
-141 -176 -146 -106 0
-142 -177 -147 -107 0
-143 -178 -148 -108 0
-144 -179 -149 -109 0
-145 -180 -150 -110 0
149 0
-146 0
-147 0
-148 0
-150 0
184 154 114 144 0
-184 -154 0
-184 -114 0
-184 -144 0
-154 -114 0
-154 -144 0
-114 -144 0
155 0
-151 0
-152 0
-153 0
-154 0
190 160 120 150 0
-190 -160 0
-190 -120 0
-190 -150 0
-160 -120 0
-160 -150 0
-120 -150 0
156 157 158 159 160 0
-156 -312 0
-156 -313 0
-156 -314 0
-157 312 0
-157 -313 0
-157 -314 0
-158 -312 0
-158 313 0
-158 -314 0
-159 312 0
-159 313 0
-159 -314 0
-160 -312 0
-160 -313 0
-160 314 0
-156 191 161 121 0
-156 191 161 151 0
-156 191 121 151 0
-156 161 121 151 0
-157 192 162 122 0
-157 192 162 152 0
-157 192 122 152 0
-157 162 122 152 0
-158 193 163 123 0
-158 193 163 153 0
-158 193 123 153 0
-158 163 123 153 0
-159 194 164 124 0
-159 194 164 154 0
-159 194 124 154 0
-159 164 124 154 0
-160 195 165 125 0
-160 195 165 155 0
-160 195 125 155 0
-160 165 125 155 0
-156 -191 -161 -121 0
-156 -191 -161 -151 0
-156 -191 -121 -151 0
-156 -161 -121 -151 0
-157 -192 -162 -122 0
-157 -192 -162 -152 0
-157 -192 -122 -152 0
-157 -162 -122 -152 0
-158 -193 -163 -123 0
-158 -193 -163 -153 0
-158 -193 -123 -153 0
-158 -163 -123 -153 0
-159 -194 -164 -124 0
-159 -194 -164 -154 0
-159 -194 -124 -154 0
-159 -164 -124 -154 0
-160 -195 -165 -125 0
-160 -195 -165 -155 0
-160 -195 -125 -155 0
-160 -165 -125 -155 0
165 0
-161 0
-162 0
-163 0
-164 0
200 170 130 160 0
-200 -170 0
-200 -130 0
-200 -160 0
-170 -130 0
-170 -160 0
-130 -160 0
166 167 168 169 170 0
-166 -315 0
-166 -316 0
-166 -317 0
-167 315 0
-167 -316 0
-167 -317 0
-168 -315 0
-168 316 0
-168 -317 0
-169 315 0
-169 316 0
-169 -317 0
-170 -315 0
-170 -316 0
-170 317 0
-166 201 171 131 0
-166 201 171 161 0
-166 201 131 161 0
-166 171 131 161 0
-167 202 172 132 0
-167 202 172 162 0
-167 202 132 162 0
-167 172 132 162 0
-168 203 173 133 0
-168 203 173 163 0
-168 203 133 163 0
-168 173 133 163 0
-169 204 174 134 0
-169 204 174 164 0
-169 204 134 164 0
-169 174 134 164 0
-170 205 175 135 0
-170 205 175 165 0
-170 205 135 165 0
-170 175 135 165 0
-166 -201 -171 -131 0
-166 -201 -171 -161 0
-166 -201 -131 -161 0
-166 -171 -131 -161 0
-167 -202 -172 -132 0
-167 -202 -172 -162 0
-167 -202 -132 -162 0
-167 -172 -132 -162 0
-168 -203 -173 -133 0
-168 -203 -173 -163 0
-168 -203 -133 -163 0
-168 -173 -133 -163 0
-169 -204 -174 -134 0
-169 -204 -174 -164 0
-169 -204 -134 -164 0
-169 -174 -134 -164 0
-170 -205 -175 -135 0
-170 -205 -175 -165 0
-170 -205 -135 -165 0
-170 -175 -135 -165 0
171 172 173 174 175 0
-171 -318 0
-171 -319 0
-171 -320 0
-172 318 0
-172 -319 0
-172 -320 0
-173 -318 0
-173 319 0
-173 -320 0
-174 318 0
-174 319 0
-174 -320 0
-175 -318 0
-175 -319 0
-175 320 0
-171 206 166 0
-171 206 136 0
-171 166 136 0
-172 207 167 0
-172 207 137 0
-172 167 137 0
-173 208 168 0
-173 208 138 0
-173 168 138 0
-174 209 169 0
-174 209 139 0
-174 169 139 0
-175 210 170 0
-175 210 140 0
-175 170 140 0
-171 -206 -166 -136 0
-172 -207 -167 -137 0
-173 -208 -168 -138 0
-174 -209 -169 -139 0
-175 -210 -170 -140 0
176 177 178 179 180 0
-176 -321 0
-176 -322 0
-176 -323 0
-177 321 0
-177 -322 0
-177 -323 0
-178 -321 0
-178 322 0
-178 -323 0
-179 321 0
-179 322 0
-179 -323 0
-180 -321 0
-180 -322 0
-180 323 0
-176 211 181 0
-176 211 141 0
-176 181 141 0
-177 212 182 0
-177 212 142 0
-177 182 142 0
-178 213 183 0
-178 213 143 0
-178 183 143 0
-179 214 184 0
-179 214 144 0
-179 184 144 0
-180 215 185 0
-180 215 145 0
-180 185 145 0
-176 -211 -181 -141 0
-177 -212 -182 -142 0
-178 -213 -183 -143 0
-179 -214 -184 -144 0
-180 -215 -185 -145 0
181 182 183 184 185 0
-181 -324 0
-181 -325 0
-181 -326 0
-182 324 0
-182 -325 0
-182 -326 0
-183 -324 0
-183 325 0
-183 -326 0
-184 324 0
-184 325 0
-184 -326 0
-185 -324 0
-185 -325 0
-185 326 0
-181 216 186 146 0
-181 216 186 176 0
-181 216 146 176 0
-181 186 146 176 0
-182 217 187 147 0
-182 217 187 177 0
-182 217 147 177 0
-182 187 147 177 0
-183 218 188 148 0
-183 218 188 178 0
-183 218 148 178 0
-183 188 148 178 0
-184 219 189 149 0
-184 219 189 179 0
-184 219 149 179 0
-184 189 149 179 0
-185 220 190 150 0
-185 220 190 180 0
-185 220 150 180 0
-185 190 150 180 0
-181 -216 -186 -146 0
-181 -216 -186 -176 0
-181 -216 -146 -176 0
-181 -186 -146 -176 0
-182 -217 -187 -147 0
-182 -217 -187 -177 0
-182 -217 -147 -177 0
-182 -187 -147 -177 0
-183 -218 -188 -148 0
-183 -218 -188 -178 0
-183 -218 -148 -178 0
-183 -188 -148 -178 0
-184 -219 -189 -149 0
-184 -219 -189 -179 0
-184 -219 -149 -179 0
-184 -189 -149 -179 0
-185 -220 -190 -150 0
-185 -220 -190 -180 0
-185 -220 -150 -180 0
-185 -190 -150 -180 0
186 187 188 189 190 0
-186 -327 0
-186 -328 0
-186 -329 0
-187 327 0
-187 -328 0
-187 -329 0
-188 -327 0
-188 328 0
-188 -329 0
-189 327 0
-189 328 0
-189 -329 0
-190 -327 0
-190 -328 0
-190 329 0
-186 221 191 151 0
-186 221 191 181 0
-186 221 151 181 0
-186 191 151 181 0
-187 222 192 152 0
-187 222 192 182 0
-187 222 152 182 0
-187 192 152 182 0
-188 223 193 153 0
-188 223 193 183 0
-188 223 153 183 0
-188 193 153 183 0
-189 224 194 154 0
-189 224 194 184 0
-189 224 154 184 0
-189 194 154 184 0
-190 225 195 155 0
-190 225 195 185 0
-190 225 155 185 0
-190 195 155 185 0
-186 -221 -191 -151 0
-186 -221 -191 -181 0
-186 -221 -151 -181 0
-186 -191 -151 -181 0
-187 -222 -192 -152 0
-187 -222 -192 -182 0
-187 -222 -152 -182 0
-187 -192 -152 -182 0
-188 -223 -193 -153 0
-188 -223 -193 -183 0
-188 -223 -153 -183 0
-188 -193 -153 -183 0
-189 -224 -194 -154 0
-189 -224 -194 -184 0
-189 -224 -154 -184 0
-189 -194 -154 -184 0
-190 -225 -195 -155 0
-190 -225 -195 -185 0
-190 -225 -155 -185 0
-190 -195 -155 -185 0
191 192 193 194 195 0
-191 -330 0
-191 -331 0
-191 -332 0
-192 330 0
-192 -331 0
-192 -332 0
-193 -330 0
-193 331 0
-193 -332 0
-194 330 0
-194 331 0
-194 -332 0
-195 -330 0
-195 -331 0
-195 332 0
-191 226 196 156 0
-191 226 196 186 0
-191 226 156 186 0
-191 196 156 186 0
-192 227 197 157 0
-192 227 197 187 0
-192 227 157 187 0
-192 197 157 187 0
-193 228 198 158 0
-193 228 198 188 0
-193 228 158 188 0
-193 198 158 188 0
-194 229 199 159 0
-194 229 199 189 0
-194 229 159 189 0
-194 199 159 189 0
-195 230 200 160 0
-195 230 200 190 0
-195 230 160 190 0
-195 200 160 190 0
-191 -226 -196 -156 0
-191 -226 -196 -186 0
-191 -226 -156 -186 0
-191 -196 -156 -186 0
-192 -227 -197 -157 0
-192 -227 -197 -187 0
-192 -227 -157 -187 0
-192 -197 -157 -187 0
-193 -228 -198 -158 0
-193 -228 -198 -188 0
-193 -228 -158 -188 0
-193 -198 -158 -188 0
-194 -229 -199 -159 0
-194 -229 -199 -189 0
-194 -229 -159 -189 0
-194 -199 -159 -189 0
-195 -230 -200 -160 0
-195 -230 -200 -190 0
-195 -230 -160 -190 0
-195 -200 -160 -190 0
196 197 198 199 200 0
-196 -333 0
-196 -334 0
-196 -335 0
-197 333 0
-197 -334 0
-197 -335 0
-198 -333 0
-198 334 0
-198 -335 0
-199 333 0
-199 334 0
-199 -335 0
-200 -333 0
-200 -334 0
-200 335 0
-196 231 201 161 0
-196 231 201 191 0
-196 231 161 191 0
-196 201 161 191 0
-197 232 202 162 0
-197 232 202 192 0
-197 232 162 192 0
-197 202 162 192 0
-198 233 203 163 0
-198 233 203 193 0
-198 233 163 193 0
-198 203 163 193 0
-199 234 204 164 0
-199 234 204 194 0
-199 234 164 194 0
-199 204 164 194 0
-200 235 205 165 0
-200 235 205 195 0
-200 235 165 195 0
-200 205 165 195 0
-196 -231 -201 -161 0
-196 -231 -201 -191 0
-196 -231 -161 -191 0
-196 -201 -161 -191 0
-197 -232 -202 -162 0
-197 -232 -202 -192 0
-197 -232 -162 -192 0
-197 -202 -162 -192 0
-198 -233 -203 -163 0
-198 -233 -203 -193 0
-198 -233 -163 -193 0
-198 -203 -163 -193 0
-199 -234 -204 -164 0
-199 -234 -204 -194 0
-199 -234 -164 -194 0
-199 -204 -164 -194 0
-200 -235 -205 -165 0
-200 -235 -205 -195 0
-200 -235 -165 -195 0
-200 -205 -165 -195 0
201 202 203 204 205 0
-201 -336 0
-201 -337 0
-201 -338 0
-202 336 0
-202 -337 0
-202 -338 0
-203 -336 0
-203 337 0
-203 -338 0
-204 336 0
-204 337 0
-204 -338 0
-205 -336 0
-205 -337 0
-205 338 0
-201 236 206 166 0
-201 236 206 196 0
-201 236 166 196 0
-201 206 166 196 0
-202 237 207 167 0
-202 237 207 197 0
-202 237 167 197 0
-202 207 167 197 0
-203 238 208 168 0
-203 238 208 198 0
-203 238 168 198 0
-203 208 168 198 0
-204 239 209 169 0
-204 239 209 199 0
-204 239 169 199 0
-204 209 169 199 0
-205 240 210 170 0
-205 240 210 200 0
-205 240 170 200 0
-205 210 170 200 0
-201 -236 -206 -166 0
-201 -236 -206 -196 0
-201 -236 -166 -196 0
-201 -206 -166 -196 0
-202 -237 -207 -167 0
-202 -237 -207 -197 0
-202 -237 -167 -197 0
-202 -207 -167 -197 0
-203 -238 -208 -168 0
-203 -238 -208 -198 0
-203 -238 -168 -198 0
-203 -208 -168 -198 0
-204 -239 -209 -169 0
-204 -239 -209 -199 0
-204 -239 -169 -199 0
-204 -209 -169 -199 0
-205 -240 -210 -170 0
-205 -240 -210 -200 0
-205 -240 -170 -200 0
-205 -210 -170 -200 0
206 207 208 209 210 0
-206 -339 0
-206 -340 0
-206 -341 0
-207 339 0
-207 -340 0
-207 -341 0
-208 -339 0
-208 340 0
-208 -341 0
-209 339 0
-209 340 0
-209 -341 0
-210 -339 0
-210 -340 0
-210 341 0
-206 241 201 0
-206 241 171 0
-206 201 171 0
-207 242 202 0
-207 242 172 0
-207 202 172 0
-208 243 203 0
-208 243 173 0
-208 203 173 0
-209 244 204 0
-209 244 174 0
-209 204 174 0
-210 245 205 0
-210 245 175 0
-210 205 175 0
-206 -241 -201 -171 0
-207 -242 -202 -172 0
-208 -243 -203 -173 0
-209 -244 -204 -174 0
-210 -245 -205 -175 0
211 212 213 214 215 0
-211 -342 0
-211 -343 0
-211 -344 0
-212 342 0
-212 -343 0
-212 -344 0
-213 -342 0
-213 343 0
-213 -344 0
-214 342 0
-214 343 0
-214 -344 0
-215 -342 0
-215 -343 0
-215 344 0
-211 176 0
-211 216 0
-212 177 0
-212 217 0
-213 178 0
-213 218 0
-214 179 0
-214 219 0
-215 180 0
-215 220 0
216 217 218 219 220 0
-216 -345 0
-216 -346 0
-216 -347 0
-217 345 0
-217 -346 0
-217 -347 0
-218 -345 0
-218 346 0
-218 -347 0
-219 345 0
-219 346 0
-219 -347 0
-220 -345 0
-220 -346 0
-220 347 0
-216 181 221 0
-216 181 211 0
-216 221 211 0
-217 182 222 0
-217 182 212 0
-217 222 212 0
-218 183 223 0
-218 183 213 0
-218 223 213 0
-219 184 224 0
-219 184 214 0
-219 224 214 0
-220 185 225 0
-220 185 215 0
-220 225 215 0
-216 -181 -221 -211 0
-217 -182 -222 -212 0
-218 -183 -223 -213 0
-219 -184 -224 -214 0
-220 -185 -225 -215 0
221 222 223 224 225 0
-221 -348 0
-221 -349 0
-221 -350 0
-222 348 0
-222 -349 0
-222 -350 0
-223 -348 0
-223 349 0
-223 -350 0
-224 348 0
-224 349 0
-224 -350 0
-225 -348 0
-225 -349 0
-225 350 0
-221 186 226 0
-221 186 216 0
-221 226 216 0
-222 187 227 0
-222 187 217 0
-222 227 217 0
-223 188 228 0
-223 188 218 0
-223 228 218 0
-224 189 229 0
-224 189 219 0
-224 229 219 0
-225 190 230 0
-225 190 220 0
-225 230 220 0
-221 -186 -226 -216 0
-222 -187 -227 -217 0
-223 -188 -228 -218 0
-224 -189 -229 -219 0
-225 -190 -230 -220 0
226 227 228 229 230 0
-226 -351 0
-226 -352 0
-226 -353 0
-227 351 0
-227 -352 0
-227 -353 0
-228 -351 0
-228 352 0
-228 -353 0
-229 351 0
-229 352 0
-229 -353 0
-230 -351 0
-230 -352 0
-230 353 0
-226 191 231 0
-226 191 221 0
-226 231 221 0
-227 192 232 0
-227 192 222 0
-227 232 222 0
-228 193 233 0
-228 193 223 0
-228 233 223 0
-229 194 234 0
-229 194 224 0
-229 234 224 0
-230 195 235 0
-230 195 225 0
-230 235 225 0
-226 -191 -231 -221 0
-227 -192 -232 -222 0
-228 -193 -233 -223 0
-229 -194 -234 -224 0
-230 -195 -235 -225 0
231 232 233 234 235 0
-231 -354 0
-231 -355 0
-231 -356 0
-232 354 0
-232 -355 0
-232 -356 0
-233 -354 0
-233 355 0
-233 -356 0
-234 354 0
-234 355 0
-234 -356 0
-235 -354 0
-235 -355 0
-235 356 0
-231 196 236 0
-231 196 226 0
-231 236 226 0
-232 197 237 0
-232 197 227 0
-232 237 227 0
-233 198 238 0
-233 198 228 0
-233 238 228 0
-234 199 239 0
-234 199 229 0
-234 239 229 0
-235 200 240 0
-235 200 230 0
-235 240 230 0
-231 -196 -236 -226 0
-232 -197 -237 -227 0
-233 -198 -238 -228 0
-234 -199 -239 -229 0
-235 -200 -240 -230 0
236 237 238 239 240 0
-236 -357 0
-236 -358 0
-236 -359 0
-237 357 0
-237 -358 0
-237 -359 0
-238 -357 0
-238 358 0
-238 -359 0
-239 357 0
-239 358 0
-239 -359 0
-240 -357 0
-240 -358 0
-240 359 0
-236 201 241 0
-236 201 231 0
-236 241 231 0
-237 202 242 0
-237 202 232 0
-237 242 232 0
-238 203 243 0
-238 203 233 0
-238 243 233 0
-239 204 244 0
-239 204 234 0
-239 244 234 0
-240 205 245 0
-240 205 235 0
-240 245 235 0
-236 -201 -241 -231 0
-237 -202 -242 -232 0
-238 -203 -243 -233 0
-239 -204 -244 -234 0
-240 -205 -245 -235 0
241 242 243 244 245 0
-241 -360 0
-241 -361 0
-241 -362 0
-242 360 0
-242 -361 0
-242 -362 0
-243 -360 0
-243 361 0
-243 -362 0
-244 360 0
-244 361 0
-244 -362 0
-245 -360 0
-245 -361 0
-245 362 0
-241 206 0
-241 236 0
-242 207 0
-242 237 0
-243 208 0
-243 238 0
-244 209 0
-244 239 0
-245 210 0
-245 240 0